PROJECT = { A, B, C, D, E, F, G, H, I, J, K};

P = 7;

travel_costs = [| 0, 2, 2, 5, 2, 1, 3, 6, 3, 2, 2
                | 1, 0, 2, 2, 3, 2, 1, 6, 3, 4, 1
                | 2, 1, 0, 3, 4, 3, 3, 7, 3, 5, 0
                | 4, 1, 4, 0, 1, 5, 2, 7, 7, 1, 5
                | 2, 2, 1, 3, 0, 5, 6, 1, 1, 2, 0
                | 5, 3, 2, 4, 1, 0, 5, 3, 4, 2, 3
                | 4, 4, 1, 1, 5, 4, 0, 1, 2, 2, 2
                | 4, 3, 6, 3, 3, 2, 1, 0, 5, 6, 2
                | 5, 6, 2, 3, 4, 6, 1, 3, 0, 3, 6
                | 2, 2, 3, 4, 1, 2, 5, 3, 4, 0, 6
                | 1, 4, 5, 2, 4, 5, 6, 7, 3, 1, 0|];
                                         
project_with_precedences = { A, B, C, D, E, F};
project_must_be_done = {A, C, G, I, J};

precedences = [| ARCHI, ING, ELEC
               | ING, ELEC, ARCHI
               | ARCHI, ING, ELEC
               | ING, ARCHI, ELEC
               | ING, ARCHI, ELEC
               | ELEC, ING, ARCHI
               | ELEC, ARCHI, ING
               | ING, ARCHI, ELEC
               | ING, ING, ING
               | ING, ING, ING 
               | ING, ING, ING|];
                                          
revenu = [10, 14, 13, 24, 14, 20, 14, 13, 19, 15, 12];